(set-logic HORN)

(declare-fun state ((Array Int Int) (Array Int Int) (Array Int Int) (Array Int Int) (Array Int Int) (Array Int Int) Int Int Int Bool Bool Bool Bool) Bool)


(assert (forall ((|!{a1.1}| (Array Int Int)) (|!{a2.2}| (Array Int Int)) (|!{a3.3}| (Array Int Int)) (|!{a4.4}| (Array Int Int)) (|!{a5.5}| (Array Int Int)) (|!{a6.6}| (Array Int Int)) (|!{N}| Int) (|!{i}| Int) (|!{x}| Int) (|!pc[0]| Bool) (|!pc[1]| Bool) (|!pc[2]| Bool) (|!pc[3]| Bool))
  (=>
   (let ((.def_59 (not |!pc[3]|)))
(let ((.def_57 (not |!pc[2]|)))
(let ((.def_55 (not |!pc[1]|)))
(let ((.def_54 (not |!pc[0]|)))
(let ((.def_56 (and .def_54 .def_55)))
(let ((.def_58 (and .def_56 .def_57)))
(let ((.def_60 (and .def_58 .def_59)))
.def_60)))))))
   (state |!{a1.1}| |!{a2.2}| |!{a3.3}| |!{a4.4}| |!{a5.5}| |!{a6.6}| |!{N}| |!{i}| |!{x}| |!pc[0]| |!pc[1]| |!pc[2]| |!pc[3]|))))

(assert (forall ((|!{a1.1}| (Array Int Int)) (|!{a2.2}| (Array Int Int)) (|!{a3.3}| (Array Int Int)) (|!{a4.4}| (Array Int Int)) (|!{a5.5}| (Array Int Int)) (|!{a6.6}| (Array Int Int)) (|!{N}| Int) (|!{i}| Int) (|!{x}| Int) (|!pc[0]| Bool) (|!pc[1]| Bool) (|!pc[2]| Bool) (|!pc[3]| Bool)
                 (|!{a1.1}.next| (Array Int Int)) (|!{a2.2}.next| (Array Int Int)) (|!{a3.3}.next| (Array Int Int)) (|!{a4.4}.next| (Array Int Int)) (|!{a5.5}.next| (Array Int Int)) (|!{a6.6}.next| (Array Int Int)) (|!{N}.next| Int) (|!{i}.next| Int) (|!{x}.next| Int) (|!pc[0].next| Bool) (|!pc[1].next| Bool) (|!pc[2].next| Bool) (|!pc[3].next| Bool)
                 (|%{x}#1| Int) (|%{a1.1}#1| (Array Int Int)) (|%{a2.2}#1| (Array Int Int)) (|%{a3.3}#1| (Array Int Int)) (|%{a4.4}#1| (Array Int Int)) (|%{a5.5}#1| (Array Int Int)) (|%{a6.6}#1| (Array Int Int)) (nd<0> Int) (nd_char<0> Int))
  (=>
   (and (state |!{a1.1}| |!{a2.2}| |!{a3.3}| |!{a4.4}| |!{a5.5}| |!{a6.6}| |!{N}| |!{i}| |!{x}| |!pc[0]| |!pc[1]| |!pc[2]| |!pc[3]|)
(let ((.def_55 (not |!pc[1]|)))
(let ((.def_199 (and |!pc[0]| .def_55)))
(let ((.def_57 (not |!pc[2]|)))
(let ((.def_299 (and .def_57 .def_199)))
(let ((.def_59 (not |!pc[3]|)))
(let ((.def_300 (and .def_59 .def_299)))
(let ((.def_161 (not |!pc[0].next|)))
(let ((.def_93 (not |!pc[1].next|)))
(let ((.def_168 (and .def_93 .def_161)))
(let ((.def_95 (not |!pc[2].next|)))
(let ((.def_264 (and .def_95 .def_168)))
(let ((.def_265 (and |!pc[3].next| .def_264)))
(let ((.def_303 (and .def_265 .def_300)))
(let ((.def_113 (= |!{a2.2}| |!{a2.2}.next|)))
(let ((.def_111 (= |!{a1.1}| |!{a1.1}.next|)))
(let ((.def_130 (and .def_111 .def_113)))
(let ((.def_115 (= |!{a3.3}| |!{a3.3}.next|)))
(let ((.def_131 (and .def_115 .def_130)))
(let ((.def_117 (= |!{a4.4}| |!{a4.4}.next|)))
(let ((.def_132 (and .def_117 .def_131)))
(let ((.def_119 (= |!{a5.5}| |!{a5.5}.next|)))
(let ((.def_133 (and .def_119 .def_132)))
(let ((.def_121 (= |!{a6.6}| |!{a6.6}.next|)))
(let ((.def_134 (and .def_121 .def_133)))
(let ((.def_123 (= |!{N}| |!{N}.next|)))
(let ((.def_135 (and .def_123 .def_134)))
(let ((.def_88 (= |!{i}.next| 0)))
(let ((.def_219 (and .def_88 .def_135)))
(let ((.def_127 (= |!{x}| |!{x}.next|)))
(let ((.def_220 (and .def_127 .def_219)))
(let ((.def_181 (<= |!{N}| |!{i}|)))
(let ((.def_221 (and .def_181 .def_220)))
(let ((.def_304 (and .def_221 .def_303)))
(let ((.def_97 (not |!pc[3].next|)))
(let ((.def_94 (and |!pc[0].next| .def_93)))
(let ((.def_96 (and .def_94 .def_95)))
(let ((.def_98 (and .def_96 .def_97)))
(let ((.def_301 (and .def_98 .def_300)))
(let ((.def_288 (store |!{a2.2}| |!{i}| nd_char<0>)))
(let ((.def_289 (= |!{a2.2}.next| .def_288)))
(let ((.def_274 (store |!{a1.1}| |!{i}| nd_char<0>)))
(let ((.def_277 (= |!{a1.1}.next| .def_274)))
(let ((.def_290 (and .def_277 .def_289)))
(let ((.def_291 (and .def_115 .def_290)))
(let ((.def_292 (and .def_117 .def_291)))
(let ((.def_293 (and .def_119 .def_292)))
(let ((.def_294 (and .def_121 .def_293)))
(let ((.def_295 (and .def_123 .def_294)))
(let ((.def_190 (* (- 1) |!{i}.next|)))
(let ((.def_191 (+ |!{i}| .def_190)))
(let ((.def_192 (= .def_191 (- 1))))
(let ((.def_296 (and .def_192 .def_295)))
(let ((.def_297 (and .def_127 .def_296)))
(let ((.def_182 (not .def_181)))
(let ((.def_298 (and .def_182 .def_297)))
(let ((.def_302 (and .def_298 .def_301)))
(let ((.def_305 (or .def_302 .def_304)))
(let ((.def_54 (not |!pc[0]|)))
(let ((.def_56 (and .def_54 .def_55)))
(let ((.def_58 (and .def_56 .def_57)))
(let ((.def_263 (and |!pc[3]| .def_58)))
(let ((.def_156 (and |!pc[0].next| |!pc[1].next|)))
(let ((.def_244 (and |!pc[2].next| .def_156)))
(let ((.def_245 (and .def_97 .def_244)))
(let ((.def_268 (and .def_245 .def_263)))
(let ((.def_269 (and .def_221 .def_268)))
(let ((.def_266 (and .def_263 .def_265)))
(let ((.def_252 (select |!{a2.2}| |!{i}|)))
(let ((.def_253 (store |!{a3.3}| |!{i}| .def_252)))
(let ((.def_254 (= |!{a3.3}.next| .def_253)))
(let ((.def_255 (and .def_130 .def_254)))
(let ((.def_256 (and .def_117 .def_255)))
(let ((.def_257 (and .def_119 .def_256)))
(let ((.def_258 (and .def_121 .def_257)))
(let ((.def_259 (and .def_123 .def_258)))
(let ((.def_260 (and .def_192 .def_259)))
(let ((.def_261 (and .def_127 .def_260)))
(let ((.def_262 (and .def_182 .def_261)))
(let ((.def_267 (and .def_262 .def_266)))
(let ((.def_270 (or .def_267 .def_269)))
(let ((.def_175 (and |!pc[0]| |!pc[1]|)))
(let ((.def_242 (and |!pc[2]| .def_175)))
(let ((.def_243 (and .def_59 .def_242)))
(let ((.def_162 (and |!pc[1].next| .def_161)))
(let ((.def_224 (and |!pc[2].next| .def_162)))
(let ((.def_225 (and .def_97 .def_224)))
(let ((.def_248 (and .def_225 .def_243)))
(let ((.def_249 (and .def_221 .def_248)))
(let ((.def_246 (and .def_243 .def_245)))
(let ((.def_232 (select |!{a3.3}| |!{i}|)))
(let ((.def_233 (store |!{a4.4}| |!{i}| .def_232)))
(let ((.def_234 (= |!{a4.4}.next| .def_233)))
(let ((.def_235 (and .def_131 .def_234)))
(let ((.def_236 (and .def_119 .def_235)))
(let ((.def_237 (and .def_121 .def_236)))
(let ((.def_238 (and .def_123 .def_237)))
(let ((.def_239 (and .def_192 .def_238)))
(let ((.def_240 (and .def_127 .def_239)))
(let ((.def_241 (and .def_182 .def_240)))
(let ((.def_247 (and .def_241 .def_246)))
(let ((.def_250 (or .def_247 .def_249)))
(let ((.def_153 (and |!pc[1]| .def_54)))
(let ((.def_222 (and |!pc[2]| .def_153)))
(let ((.def_223 (and .def_59 .def_222)))
(let ((.def_202 (and |!pc[2].next| .def_94)))
(let ((.def_203 (and .def_97 .def_202)))
(let ((.def_228 (and .def_203 .def_223)))
(let ((.def_229 (and .def_221 .def_228)))
(let ((.def_226 (and .def_223 .def_225)))
(let ((.def_210 (select |!{a4.4}| |!{i}|)))
(let ((.def_211 (store |!{a5.5}| |!{i}| .def_210)))
(let ((.def_212 (= |!{a5.5}.next| .def_211)))
(let ((.def_213 (and .def_132 .def_212)))
(let ((.def_214 (and .def_121 .def_213)))
(let ((.def_215 (and .def_123 .def_214)))
(let ((.def_216 (and .def_192 .def_215)))
(let ((.def_217 (and .def_127 .def_216)))
(let ((.def_218 (and .def_182 .def_217)))
(let ((.def_227 (and .def_218 .def_226)))
(let ((.def_230 (or .def_227 .def_229)))
(let ((.def_200 (and |!pc[2]| .def_199)))
(let ((.def_201 (and .def_59 .def_200)))
(let ((.def_163 (and .def_95 .def_162)))
(let ((.def_164 (and .def_97 .def_163)))
(let ((.def_206 (and .def_164 .def_201)))
(let ((.def_196 (= |!{x}.next| 0)))
(let ((.def_125 (= |!{i}| |!{i}.next|)))
(let ((.def_136 (and .def_125 .def_135)))
(let ((.def_197 (and .def_136 .def_196)))
(let ((.def_198 (and .def_181 .def_197)))
(let ((.def_207 (and .def_198 .def_206)))
(let ((.def_204 (and .def_201 .def_203)))
(let ((.def_184 (select |!{a5.5}| |!{i}|)))
(let ((.def_185 (store |!{a6.6}| |!{i}| .def_184)))
(let ((.def_187 (= |!{a6.6}.next| .def_185)))
(let ((.def_188 (and .def_133 .def_187)))
(let ((.def_189 (and .def_123 .def_188)))
(let ((.def_193 (and .def_189 .def_192)))
(let ((.def_194 (and .def_127 .def_193)))
(let ((.def_195 (and .def_182 .def_194)))
(let ((.def_205 (and .def_195 .def_204)))
(let ((.def_208 (or .def_205 .def_207)))
(let ((.def_176 (and .def_57 .def_175)))
(let ((.def_177 (and .def_59 .def_176)))
(let ((.def_178 (and .def_164 .def_177)))
(let ((.def_138 (* (- 1) |!{x}.next|)))
(let ((.def_139 (+ |!{x}| .def_138)))
(let ((.def_140 (= .def_139 (- 1))))
(let ((.def_141 (and .def_136 .def_140)))
(let ((.def_179 (and .def_141 .def_178)))
(let ((.def_169 (and |!pc[2].next| .def_168)))
(let ((.def_170 (and .def_97 .def_169)))
(let ((.def_154 (and .def_57 .def_153)))
(let ((.def_155 (and .def_59 .def_154)))
(let ((.def_171 (and .def_155 .def_170)))
(let ((.def_101 (<= |!{N}| |!{x}|)))
(let ((.def_144 (and .def_101 .def_111)))
(let ((.def_145 (and .def_113 .def_144)))
(let ((.def_146 (and .def_115 .def_145)))
(let ((.def_147 (and .def_117 .def_146)))
(let ((.def_148 (and .def_119 .def_147)))
(let ((.def_149 (and .def_121 .def_148)))
(let ((.def_150 (and .def_123 .def_149)))
(let ((.def_151 (and .def_125 .def_150)))
(let ((.def_152 (and .def_127 .def_151)))
(let ((.def_172 (and .def_152 .def_171)))
(let ((.def_165 (and .def_155 .def_164)))
(let ((.def_104 (select |!{a6.6}| |!{x}|)))
(let ((.def_103 (select |!{a1.1}| |!{x}|)))
(let ((.def_105 (= .def_103 .def_104)))
(let ((.def_142 (and .def_105 .def_141)))
(let ((.def_102 (not .def_101)))
(let ((.def_143 (and .def_102 .def_142)))
(let ((.def_166 (and .def_143 .def_165)))
(let ((.def_157 (and .def_95 .def_156)))
(let ((.def_158 (and .def_97 .def_157)))
(let ((.def_159 (and .def_155 .def_158)))
(let ((.def_106 (not .def_105)))
(let ((.def_112 (and .def_106 .def_111)))
(let ((.def_114 (and .def_112 .def_113)))
(let ((.def_116 (and .def_114 .def_115)))
(let ((.def_118 (and .def_116 .def_117)))
(let ((.def_120 (and .def_118 .def_119)))
(let ((.def_122 (and .def_120 .def_121)))
(let ((.def_124 (and .def_122 .def_123)))
(let ((.def_126 (and .def_124 .def_125)))
(let ((.def_128 (and .def_126 .def_127)))
(let ((.def_129 (and .def_102 .def_128)))
(let ((.def_160 (and .def_129 .def_159)))
(let ((.def_167 (or .def_160 .def_166)))
(let ((.def_173 (or .def_167 .def_172)))
(let ((.def_60 (and .def_58 .def_59)))
(let ((.def_99 (and .def_60 .def_98)))
(let ((.def_90 (= |!{x}.next| |%{x}#1|)))
(let ((.def_86 (= |!{N}.next| nd<0>)))
(let ((.def_84 (= |!{a6.6}.next| |%{a6.6}#1|)))
(let ((.def_82 (= |!{a5.5}.next| |%{a5.5}#1|)))
(let ((.def_80 (= |!{a4.4}.next| |%{a4.4}#1|)))
(let ((.def_78 (= |!{a3.3}.next| |%{a3.3}#1|)))
(let ((.def_76 (= |!{a2.2}.next| |%{a2.2}#1|)))
(let ((.def_75 (= |!{a1.1}.next| |%{a1.1}#1|)))
(let ((.def_77 (and .def_75 .def_76)))
(let ((.def_79 (and .def_77 .def_78)))
(let ((.def_81 (and .def_79 .def_80)))
(let ((.def_83 (and .def_81 .def_82)))
(let ((.def_85 (and .def_83 .def_84)))
(let ((.def_87 (and .def_85 .def_86)))
(let ((.def_89 (and .def_87 .def_88)))
(let ((.def_91 (and .def_89 .def_90)))
(let ((.def_73 (<= nd<0> 0)))
(let ((.def_74 (not .def_73)))
(let ((.def_92 (and .def_74 .def_91)))
(let ((.def_100 (and .def_92 .def_99)))
(let ((.def_174 (or .def_100 .def_173)))
(let ((.def_180 (or .def_174 .def_179)))
(let ((.def_209 (or .def_180 .def_208)))
(let ((.def_231 (or .def_209 .def_230)))
(let ((.def_251 (or .def_231 .def_250)))
(let ((.def_271 (or .def_251 .def_270)))
(let ((.def_306 (or .def_271 .def_305)))
.def_306))))))))))))))))))))))))))))))))))))))))))))))))))))))))))))))))))))))))))))))))))))))))))))))))))))))))))))))))))))))))))))))))))))))))))))))))))))))))))))))))))))))))))))))))))))))))))))))))))))))))))))))))))))))))))))
   ) (state |!{a1.1}.next| |!{a2.2}.next| |!{a3.3}.next| |!{a4.4}.next| |!{a5.5}.next| |!{a6.6}.next| |!{N}.next| |!{i}.next| |!{x}.next| |!pc[0].next| |!pc[1].next| |!pc[2].next| |!pc[3].next|))))

(assert (forall ((|!{a1.1}| (Array Int Int)) (|!{a2.2}| (Array Int Int)) (|!{a3.3}| (Array Int Int)) (|!{a4.4}| (Array Int Int)) (|!{a5.5}| (Array Int Int)) (|!{a6.6}| (Array Int Int)) (|!{N}| Int) (|!{i}| Int) (|!{x}| Int) (|!pc[0]| Bool) (|!pc[1]| Bool) (|!pc[2]| Bool) (|!pc[3]| Bool))
  (=> (state |!{a1.1}| |!{a2.2}| |!{a3.3}| |!{a4.4}| |!{a5.5}| |!{a6.6}| |!{N}| |!{i}| |!{x}| |!pc[0]| |!pc[1]| |!pc[2]| |!pc[3]|)
(let ((.def_175 (and |!pc[0]| |!pc[1]|)))
(let ((.def_57 (not |!pc[2]|)))
(let ((.def_176 (and .def_57 .def_175)))
(let ((.def_59 (not |!pc[3]|)))
(let ((.def_177 (and .def_59 .def_176)))
(let ((.def_307 (not .def_177)))
.def_307))))))
)))

(check-sat)
